50
    1   781   781
    2   742   742
    3   942   942
    4   442   442
    5   856   856
    6   968   968
    7   925   925
    8   168   168
    9   714   714
   10   377   377
   11   763   763
   12   357   357
   13    75    75
   14   217   217
   15   541   541
   16   919   919
   17   819   819
   18   694   694
   19   812   812
   20   134   134
   21   825   825
   22   487   487
   23   237   237
   24   127   127
   25   810   810
   26   299   299
   27   886   886
   28   430   430
   29   306   306
   30   359   359
   31   846   846
   32  1000  1000
   33   707   707
   34    30    30
   35   618   618
   36   238   238
   37   679   679
   38   386   386
   39   208   208
   40   669   669
   41    51    51
   42   753   753
   43   953   953
   44    59    59
   45   738   738
   46   140   140
   47  1000  1000
   48   596   596
   49   682   682
   50    57    57
4570
